\ Model RMP_EVSP
\ LP format - for model browsing. Use MPS format to capture full model detail.
\ Signature: 0x15ad88372532cc90
Minimize
  1e+09 q_0 + 1e+09 q_1 + 1e+09 q_2 + 1e+09 q_3 + 1e+09 q_4 + 1e+09 q_5
   + 1e+09 q_6 + 1e+09 q_7 + 1e+09 q_8 + 1e+09 q_9 + 1e+09 q_10
   + 1e+09 q_11 + 1e+09 q_12 + 1e+09 q_13 + 1e+09 q_14 + 30151.5 a[0]
   + 30212.1 a[1] + 30121.2 a[2] + 30181.8 a[3] + 30151.5 a[4]
   + 30212.1 a[5] + 30000 a[6] + 30090.9 a[7] + 30000 a[8] + 30060.6 a[9]
   + 30000 a[10] + 30151.5 a[11] + 30181.8 a[12] + 30151.5 a[13]
   + 30181.8 a[14] + 30121.2 a[15] + 30000 a[16] + 30000 a[17]
   + 30060.6 a[18] + 30181.8 a[19] + 30000 a[20] + 30030.3 a[21]
   + 30030.3 a[22] + 30121.2 a[23] + 30000 a[24] + 30000 a[25]
   + 30000 a[26] + 30000 a[27] + 30000 a[28] + 30030.3 a[29] + 30000 a[30]
   + 30030.3 a[31] + 30000 a[32] + 30030.3 a[33] + 30121.2 a[34]
   + 30151.5 a[35] + 30000 a[36] + 30030.3 a[37] + 30151.5 a[38]
   + 30090.9 a[39] + 30090.9 a[40] + 30090.9 a[41] + 30121.2 a[42]
   + 30151.5 a[43] + 30090.9 a[44] + 30121.2 a[45] + 30121.2 a[46]
   + 30121.2 a[47] + 30121.2 a[48] + 30121.2 a[49] + 30090.9 a[50]
   + 30090.9 a[51] + 30090.9 a[52] + 30060.6 a[53] + 30121.2 a[54]
   + 30181.8 a[55] + 30000 a[56] + 30090.9 a[57] + 30000 a[58]
   + 30000 a[59] + 30030.3 a[60] + 30000 a[61] + 30000 a[62]
   + 30030.3 a[63] + 30000 a[64] + 30000 a[65] + 30030.3 a[66]
   + 30030.3 a[67] + 30242.4 a[68] + 30030.3 a[69] + 30030.3 a[70]
   + 30030.3 a[71] + 30030.3 a[72] + 30000 a[73] + 30060.6 a[74]
   + 30090.9 a[75] + 30060.6 a[76] + 30121.2 a[77] + 30000 a[78]
   + 30151.5 a[79]
Subject To
 trip_coverage_0: q_0 + a[0] + a[1] + a[2] + a[3] + a[4] + a[5] + a[6]
   + a[7] + a[8] + a[10] + a[14] + a[16] + a[20] + a[21] + a[22] + a[23]
   + a[24] + a[26] + a[27] + a[28] + a[53] + a[55] + a[57] + a[60] + a[61]
   + a[62] + a[79] >= 1
 trip_coverage_1: q_1 + a[0] + a[1] + a[2] + a[3] + a[4] + a[5] + a[6]
   + a[7] + a[8] + a[13] + a[14] + a[19] + a[25] + a[34] + a[37] + a[38]
   + a[39] + a[60] >= 1
 trip_coverage_2: q_2 + a[6] + a[7] + a[8] + a[10] + a[13] + a[14] + a[18]
   + a[22] + a[26] + a[29] + a[40] + a[42] + a[43] + a[44] + a[45] + a[46]
   + a[47] + a[48] + a[49] + a[50] + a[51] + a[52] + a[53] + a[55] + a[56]
   + a[58] + a[59] + a[60] + a[61] + a[62] + a[63] + a[64] + a[66] + a[68]
   + a[69] + a[70] + a[71] + a[72] + a[73] + a[75] + a[76] + a[77] + a[78]
   >= 1
 trip_coverage_3: q_3 + a[6] + a[7] + a[8] + a[10] + a[16] + a[29] + a[30]
   + a[31] + a[32] + a[33] + a[35] + a[36] + a[41] + a[42] + a[43] + a[44]
   + a[45] + a[46] + a[47] + a[48] + a[49] + a[50] + a[52] + a[54] + a[56]
   + a[58] + a[60] + a[61] + a[70] + a[71] + a[73] + a[74] + a[77] >= 1
 trip_coverage_4: q_4 + a[6] + a[10] + a[17] + a[30] + a[31] + a[32]
   + a[33] + a[34] + a[36] + a[37] + a[50] + a[54] + a[60] + a[65] + a[66]
   + a[69] + a[70] + a[71] + a[72] + a[73] + a[74] + a[79] >= 1
 trip_coverage_5: q_5 + a[17] + a[18] + a[30] + a[31] + a[36] + a[50]
   + a[52] + a[53] + a[57] + a[60] + a[62] + a[76] >= 1
 trip_coverage_6: q_6 + a[8] + a[16] + a[25] + a[30] + a[31] + a[32]
   + a[35] + a[36] + a[38] + a[39] + a[40] + a[50] + a[52] + a[53] + a[57]
   + a[58] + a[67] + a[68] + a[75] + a[76] + a[78] >= 1
 trip_coverage_7: q_7 + a[1] + a[5] + a[6] + a[8] + a[10] + a[11] + a[12]
   + a[13] + a[15] + a[18] + a[21] + a[26] + a[35] + a[57] + a[63] + a[64]
   + a[65] + a[66] + a[67] + a[68] + a[74] + a[77] + a[78] + a[79] >= 1
 trip_coverage_8: q_8 + a[0] + a[2] + a[3] + a[4] + a[9] + a[11] + a[12]
   + a[13] + a[14] + a[15] + a[17] + a[19] + a[20] + a[21] + a[24] + a[34]
   + a[35] + a[41] + a[42] + a[43] + a[44] + a[45] + a[46] + a[47] + a[48]
   + a[49] + a[51] + a[54] + a[55] + a[57] + a[61] + a[63] + a[64] + a[65]
   + a[67] + a[74] + a[78] + a[79] >= 1
 trip_coverage_9: q_9 + a[0] + a[2] + a[4] + a[7] + a[9] + a[11] + a[19]
   + a[24] + a[25] + a[30] + a[31] + a[32] + a[33] + a[34] + a[36] + a[37]
   + a[38] + a[39] + a[40] + a[61] + a[63] + a[64] + a[65] + a[67] + a[68]
   + a[69] + a[70] + a[71] + a[72] + a[73] + a[74] + a[75] + a[79] >= 1
 trip_coverage_10: q_10 + a[0] + a[1] + a[2] + a[3] + a[5] + a[7] + a[9]
   + a[11] + a[12] + a[15] + a[19] + a[20] + a[21] + a[23] + a[24] + a[36]
   + a[37] + a[42] + a[43] + a[44] + a[45] + a[46] + a[50] + a[52] + a[53]
   + a[54] + a[55] + a[62] >= 1
 trip_coverage_11: q_11 + a[0] + a[1] + a[2] + a[3] + a[4] + a[5] + a[9]
   + a[12] + a[13] + a[14] + a[15] + a[16] + a[17] + a[22] + a[41] + a[46]
   + a[55] + a[76] + a[77] >= 1
 trip_coverage_12: q_12 + a[0] + a[1] + a[2] + a[3] + a[4] + a[5] + a[9]
   + a[12] + a[15] + a[17] + a[22] + a[23] + a[38] + a[42] + a[43] + a[44]
   + a[45] + a[46] + a[47] + a[48] + a[49] + a[51] + a[56] + a[57] + a[59]
   + a[63] + a[64] + a[65] + a[66] + a[67] + a[69] + a[70] + a[71] + a[72]
   + a[73] + a[74] + a[75] + a[76] + a[77] >= 1
 trip_coverage_13: q_13 + a[0] + a[1] + a[2] + a[3] + a[4] + a[9] + a[11]
   + a[16] + a[18] + a[19] + a[20] + a[23] + a[28] + a[35] + a[38] + a[47]
   + a[49] + a[51] + a[58] + a[63] + a[64] + a[65] + a[66] + a[67] + a[68]
   + a[69] + a[70] + a[71] + a[72] + a[73] + a[75] >= 1
 trip_coverage_14: q_14 + a[1] + a[5] + a[18] + a[27] + a[30] + a[31]
   + a[32] + a[33] + a[34] + a[35] + a[37] + a[38] + a[39] + a[40] + a[41]
   + a[47] + a[48] + a[49] + a[51] + a[54] + a[56] + a[58] + a[59] >= 1
Bounds
 a[0] <= 1
 a[1] <= 1
 a[2] <= 1
 a[3] <= 1
 a[4] <= 1
 a[5] <= 1
 a[6] <= 1
 a[7] <= 1
 a[8] <= 1
 a[9] <= 1
 a[10] <= 1
 a[11] <= 1
 a[12] <= 1
 a[13] <= 1
 a[14] <= 1
 a[15] <= 1
 a[16] <= 1
 a[17] <= 1
 a[18] <= 1
 a[19] <= 1
 a[20] <= 1
 a[21] <= 1
 a[22] <= 1
 a[23] <= 1
 a[24] <= 1
 a[25] <= 1
 a[26] <= 1
 a[27] <= 1
 a[28] <= 1
 a[29] <= 1
 a[30] <= 1
 a[31] <= 1
 a[32] <= 1
 a[33] <= 1
 a[34] <= 1
 a[35] <= 1
 a[36] <= 1
 a[37] <= 1
 a[38] <= 1
 a[39] <= 1
 a[40] <= 1
 a[41] <= 1
 a[42] <= 1
 a[43] <= 1
 a[44] <= 1
 a[45] <= 1
 a[46] <= 1
 a[47] <= 1
 a[48] <= 1
 a[49] <= 1
 a[50] <= 1
 a[51] <= 1
 a[52] <= 1
 a[53] <= 1
 a[54] <= 1
 a[55] <= 1
 a[56] <= 1
 a[57] <= 1
 a[58] <= 1
 a[59] <= 1
 a[60] <= 1
 a[61] <= 1
 a[62] <= 1
 a[63] <= 1
 a[64] <= 1
 a[65] <= 1
 a[66] <= 1
 a[67] <= 1
 a[68] <= 1
 a[69] <= 1
 a[70] <= 1
 a[71] <= 1
 a[72] <= 1
 a[73] <= 1
 a[74] <= 1
 a[75] <= 1
 a[76] <= 1
 a[77] <= 1
 a[78] <= 1
 a[79] <= 1
End
